networks/zoo_12_18/zoo_12_18-lower.sol
<?xml version = "1.0" encoding="UTF-8" standalone="yes"?>
<CPLEXSolution version="1.2">
 <header
   problemName="networks/zoo_12_18/zoo_12_18-lower.lp"
   solutionName="incumbent"
   solutionIndex="-1"
   objectiveValue="4"
   solutionTypeValue="3"
   solutionTypeString="primal"
   solutionStatusValue="101"
   solutionStatusString="integer optimal solution"
   solutionMethodString="mip"
   primalFeasible="1"
   dualFeasible="1"
   MIPNodes="0"
   MIPIterations="0"
   writeLevel="3"/>
 <quality
   epInt="1.0000000000000001e-05"
   epRHS="9.9999999999999995e-07"
   maxIntInfeas="0"
   maxPrimalInfeas="0"
   maxX="1"
   maxSlack="1"/>
 <variables>
  <variable name="Y(1,2)" index="1" value="1"/>
  <variable name="Y(2,5)" index="14" value="1"/>
  <variable name="Y(3,6)" index="25" value="1"/>
  <variable name="Y(4,1)" index="30" value="1"/>
  <variable name="X(1,2,1)" index="180" value="1"/>
  <variable name="X(1,6,2)" index="199" value="1"/>
  <variable name="X(1,7,4)" index="219" value="1"/>
  <variable name="X(2,1,4)" index="237" value="1"/>
  <variable name="X(2,8,1)" index="252" value="1"/>
  <variable name="X(3,2,7)" index="276" value="1"/>
  <variable name="X(4,3,9)" index="296" value="1"/>
  <variable name="X(4,5,11)" index="316" value="1"/>
  <variable name="X(5,4,14)" index="337" value="1"/>
  <variable name="X(5,6,12)" index="353" value="1"/>
  <variable name="X(5,11,2)" index="361" value="1"/>
  <variable name="X(6,1,13)" index="390" value="1"/>
  <variable name="X(6,5,2)" index="397" value="1"/>
  <variable name="X(6,12,3)" index="416" value="1"/>
 </variables>
</CPLEXSolution>
